c --- [ banner ] -------------------------------------------------------------
c 
c CaDiCaL Radically Simplified CDCL SAT Solver
c Copyright (c) 2016-2021 A. Biere, M. Fleury, N. Froleyks
c 
c Version 1.5.2 ca9bff05c11bde5eae4912f9932871d1527e61d8
c g++ (GCC) 9.3.0 -Wall -Wextra -O3 -DNDEBUG
c Sun May 1 02:23:23 EDT 2022 Linux gra-login1 3.10.0-1160.59.1.el7.x86_64 x86_64
c 
c --- [ limit ] --------------------------------------------------------------
c 
c setting conflict limit to 200000 conflicts (due to '200000')
c 
c --- [ parsing input ] ------------------------------------------------------
c 
c reading DIMACS file from '26.cubes248.adj'
c opening file to read '26.cubes248.adj'
c found 'p cnf 5320 924215' header
c parsed 924215 clauses in 8.81 seconds process time
c closing file '26.cubes248.adj'
c after reading 686668151 bytes 654.9 MB
c 
c --- [ options ] ------------------------------------------------------------
c 
c all options are set to their default value
c 
c --- [ solving ] ------------------------------------------------------------
c 
c time measured in process time since initialization
c 
c  seconds   reductions  redundant  irredundant
c          MB    restarts       trail      variables
c           level   conflicts       glue        remaining
c 
c *  8.81 687  0 0   0    0    0  0% 0 923580 4127 78%
c {  9.36 723  0 0   0    0    0  0% 0 923580 4127 78%
c i 11.01 750 76 0   3  146  113 51% 9 923580 4073 77%
c i 11.98 757 67 0  20  216  165 48% 12 923580 4046 76%
c i 12.65 764 63 0  32  265  204 46% 12 923580 4041 76%
c i 12.90 764 68 0  34  281  214 47% 13 923580 4040 76%
c - 15.50 741 69 1  39  300  227 46% 14 258035 4040 76%
c i 15.56 741 69 1  39  301  227 46% 13 258035 4039 76%
c i 15.71 708 70 1  42  313  233 46% 14 258035 4035 76%
c i 15.82 708 70 1  44  319  237 46% 14 258035 4034 76%
c i 16.43 708 68 1  62  410  308 45% 14 258035 4033 76%
c i 17.27 709 60 1  73  513  378 45% 15 258035 4032 76%
c i 17.72 709 59 1  85  576  431 45% 15 258035 4031 76%
c i 17.85 709 60 1  87  601  449 45% 16 258035 4028 76%
c i 18.11 709 61 1  94  628  473 45% 17 258035 4027 76%
c i 19.01 709 62 1 133  808  599 46% 21 258035 3980 75%
c i 19.18 709 62 1 133  832  615 46% 21 258035 3979 75%
c i 19.22 709 61 1 133  840  622 46% 21 258035 3978 75%
c i 19.29 709 61 1 133  845  626 46% 21 258035 3977 75%
c i 19.29 709 61 1 133  846  626 46% 21 258035 3976 75%
c 
c  seconds   reductions  redundant   irredundant
c          MB    restarts       trail       variables
c           level   conflicts       glue         remaining
c 
c i 19.30 709 61 1 133  849  628 46% 21 258035 3975 75%
c i 19.39 709 61 1 133  855  633 46% 21 258035 3956 74%
c i 19.69 709 62 1 134  961  685 46% 20 258035 3955 74%
c i 19.71 709 61 1 134  964  687 46% 20 258035 3954 74%
c } 19.83 709 60 1 134 1000  707 46% 20 258035 3954 74%
c [ 19.83 709  0 1 134 1000  707  0% 0 258035 3954 74%
c O 19.84 709 33 1 134 1003  710 41% 18 258035 3949 74%
c i 20.09 710 12 1 134 1030  722 37% 8 258035 3948 74%
c i 20.20 709 22 1 134 1078  764 48% 15 258035 3947 74%
c i 20.27 709 22 1 134 1124  804 50% 16 258035 3946 74%
c - 20.80 805 22 2 134 1150  736 51% 16 257159 3946 74%
c i 21.00 805 25 2 134 1280  846 53% 19 257159 3945 74%
c i 21.03 805 25 2 134 1314  875 53% 19 257159 3944 74%
c i 21.08 805 25 2 134 1355  909 54% 19 257159 3943 74%
c i 21.17 805 24 2 134 1487 1013 54% 19 257159 3942 74%
c i 21.17 805 24 2 134 1489 1014 54% 19 257159 3941 74%
c i 21.18 805 24 2 134 1495 1018 54% 19 257159 3940 74%
c i 21.21 805 24 2 134 1527 1042 54% 19 257159 3939 74%
c i 21.22 805 24 2 134 1536 1050 54% 19 257159 3938 74%
c i 21.22 805 24 2 134 1538 1051 54% 19 257159 3937 74%
c 
c  seconds   reductions  redundant   irredundant
c          MB    restarts       trail       variables
c           level   conflicts       glue         remaining
c 
c i 21.24 805 23 2 134 1571 1073 54% 19 257159 3936 74%
c i 21.41 805 22 2 134 1821 1250 55% 18 257159 3935 74%
c i 21.43 805 22 2 134 1836 1258 55% 18 257159 3934 74%
c i 21.57 805 22 2 134 2010 1369 54% 18 257159 3933 74%
c i 21.65 805 22 2 135 2165 1469 54% 18 257159 3932 74%
c - 22.06 802 22 3 135 2419 1301 54% 18 257119 3932 74%
c i 22.68 802 21 3 135 2814 1564 37% 18 257119 3931 74%
c i 22.98 802 21 3 135 2984 1668 36% 18 257119 3930 74%
c ] 23.01 802 21 3 135 3001 1685 36% 18 257119 3930 74%
c { 23.01 802 60 3 135 3001 1685 63% 20 257119 3930 74%
c F 23.03 802 60 3 135 3006 1685 63% 20 257119 3930 74%
c i 23.30 802 59 3 135 3036 1709 62% 20 257119 3929 74%
c i 23.63 802 59 3 142 3086 1753 61% 20 257119 3928 74%
c i 24.84 802 49 3 168 3636 2064 50% 18 257119 3927 74%
c i 24.84 802 49 3 168 3648 2074 50% 18 257119 3926 74%
c i 25.61 802 48 3 196 3898 2262 48% 18 257119 3925 74%
c - 26.69 757 49 4 221 4112 1761 46% 18 257100 3925 74%
c i 26.85 757 50 4 224 4173 1810 45% 19 257100 3924 74%
c i 26.87 757 50 4 226 4178 1814 45% 18 257100 3923 74%
c d 28.69 757 45 4 272 5013 2477 42% 17 248968 3914 74%
c 
c  seconds   reductions  redundant   irredundant
c          MB    restarts       trail       variables
c           level   conflicts       glue         remaining
c 
c 2 28.77 757 45 4 272 5013 4010 42% 17 248856 3914 74%
c p 30.32 757 45 4 272 5013 9016 42% 17 248856 3896 73%
c d 30.51 757 45 4 272 5013 8622 42% 17 248802 3894 73%
c # 34.72 757 50 4 472 6008 9450 40% 21 248802 3894 73%
c - 35.18 754 48 5 475 6227 2824 39% 21 248802 3894 73%
c } 35.82 754 43 5 478 7003 3324 39% 19 248802 3894 73%
c [ 35.82 754 21 5 478 7003 3324 36% 18 248802 3894 73%
c - 37.11 754 23 6 479 8739 3242 39% 19 248802 3894 73%
c I 38.21 754 22 6 480 10009 4056 39% 18 248802 3894 73%
c - 39.27 754 25 7 482 11670 3629 40% 21 248802 3894 73%
c ] 40.43 754 28 7 483 15006 5740 40% 24 248802 3894 73%
c { 40.43 754 43 7 483 15006 5740 39% 19 248802 3894 73%
c B 40.44 754 43 7 483 15011 5743 39% 19 248802 3894 73%
c 2 40.59 754 43 7 483 15014 7241 39% 19 248801 3894 73%
c p 41.44 754 43 7 483 15014 12236 39% 19 248801 3894 73%
c - 41.64 754 43 8 483 15020 4067 39% 19 248801 3894 73%
c s 43.38 754 45 8 610 15614 4397 39% 20 247006 3894 73%
c v 46.65 754 45 8 610 15614 4397 39% 20 246886 3894 73%
c t 46.73 754 45 8 610 15614 4393 39% 20 246800 3894 73%
c e 47.67 755 45 8 610 15614 4098 39% 20 241674 1207 23%
c 
c  seconds   reductions   redundant   irredundant
c          MB    restarts        trail       variables
c           level    conflicts       glue         remaining
c 
c s 47.80 755 45 8 610 15614 4098 39% 20 241488 1207 23%
c - 51.17 755 36 9 662 18789 4623 62% 19 241488 1207 23%
c W 54.11 755 35 9 821 21014 6229 60% 19 241488 1207 23%
c - 55.58 755 34 10 910 22937 5407 59% 19 241488 1207 23%
c - 58.21 755 30 11 972 27501 6162 60% 18 241488 1207 23%
c F 58.53 755 29 11 990 28018 6477 60% 18 241488 1207 23%
c p 60.64 755 29 11 1061 30016 11065 60% 18 241488 1206 23%
c } 61.17 755 28 11 1066 31006 11837 60% 18 241488 1206 23%
c [ 61.17 755 28 11 1066 31006 11837 132% 24 241488 1206 23%
c ] 61.43 755 27 11 1066 31382 12120 128% 23 241488 1206 23%
c 1 61.43 755 27 11 1066 31382 12120 128% 23 241488 1206 23%
c 
c --- [ writing output ] -----------------------------------------------------
c 
c writing simplified CNF to DIMACS file 'simp/26.cubes248.adj.simp1'
c * 61.43 755 27 11 1066 31382 12120 128% 23 241488 1206 23%
c opening file to write 'simp/26.cubes248.adj.simp1'
c writing 'p cnf 5320 241485' header
c closing file 'simp/26.cubes248.adj.simp1'
c after writing 95156423 bytes 90.7 MB
c wrote 241485 clauses in 0.72 seconds process time
c 
c --- [ writing extension ] --------------------------------------------------
c 
c writing extension stack to 'simp/26.cubes248.adj.ext1'
c opening file to write 'simp/26.cubes248.adj.ext1'
c closing file 'simp/26.cubes248.adj.ext1'
c after writing 162674 bytes 0.2 MB
c wrote 7299 witnesses in 0.00 seconds process time
c 
c --- [ result ] -------------------------------------------------------------
c 
s SATISFIABLE
c 
c --- [ run-time profiling ] -------------------------------------------------
c 
c process time taken by individual solving procedures
c (percentage relative to process time for solving)
c 
c        43.42   82.51% search
c        34.71   65.96% unstable
c         9.20   17.49% simplify
c         8.81   16.74% parse
c         8.05   15.30% stable
c         3.32    6.31% vivify
c         3.15    5.99% probe
c         1.69    3.20% elim
c         0.55    1.05% lucky
c         0.25    0.47% subsume
c         0.14    0.27% ternary
c         0.11    0.20% walk
c   =================================
c        52.62   84.67% solve
c 
c last line shows process time for solving
c (percentage relative to total process time)
c 
c --- [ statistics ] ---------------------------------------------------------
c 
c chronological:              6590        21.00 %  of conflicts
c conflicts:                 31382       596.40    per second
c decisions:                 98400      1870.05    per second
c eliminated:                 2687        50.51 %  of all variables
c fixed:                      1416        26.62 %  of all variables
c learned:                   30647        97.66 %  per conflict
c learned_lits:            5484720       100.00 %  learned literals
c minimized:                     0         0.00 %  learned literals
c shrunken:                3185452        58.08 %  learned literals
c minishrunken:             486566         8.87 %  learned literals
c propagations:            4938874         0.09 M  per second
c reduced:                   12839        40.91 %  per conflict
c rephased:                      7      4483.14    interval
c restarts:                   1066        29.44    interval
c stabilizing:                   3        33.08 %  of conflicts
c substituted:                  11         0.21 %  of all variables
c subsumed:                  11056         0.54 %  of all clauses
c strengthened:              11016         0.54 %  of all clauses
c ternary:                    4013         0.49 %  of resolved
c vivified:                    123         0.01 %  of all clauses
c walked:                        1     31382.00    interval
c weakened:                   5883         2.99    average size
c 
c seconds are measured in process time for solving
c 
c --- [ resources ] ----------------------------------------------------------
c 
c total process time since initialization:        62.15    seconds
c total real time since initialization:           62.30    seconds
c maximum resident set size of process:          897.17    MB
c 
c --- [ shutting down ] ------------------------------------------------------
c 
c exit 10
WARNING! DIMACS header mismatch: wrong number of variables.
============================[ Problem Statistics ]=============================
|                                                                             |
|  Number of variables:          3675                                         |
|  Number of clauses:          241487                                         |
|  Parse time:                   1.32 s                                       |
|  Simplification time:          0.02 s                                       |
|                                                                             |
============================[ Search Statistics ]====================================================
| Conflicts |          ORIGINAL         |          LEARNT          | Num Sols |      SUBGRAPHS      |
|           |    Vars  Clauses Literals |    Limit  Clauses Lit/Cl |          | Canonical Noncanon. |
=====================================================================================================
|       101 |    3599   241488 21797917 |     2000      101     96 |        0 |        21         1 |
|       252 |    3599   241489 21797942 |     2000      252     91 |        0 |        27         2 |
|       487 |    3599   241499 21798196 |     2000      487     97 |        0 |        29        12 |
|       826 |    3599   241501 21798251 |     2000      826    105 |        0 |        33        14 |
|      1369 |    3599   241538 21799019 |     2000     1369    106 |        0 |        50        51 |
|      2166 |    3599   241576 21800033 |     3602     1168     89 |        0 |        64        89 |
|      3394 |    3599   241665 21802675 |     3602     2396     93 |        0 |        94       178 |
|      5169 |    3599   241732 21804361 |     5004     2373     66 |        0 |       173       245 |
|      7766 |    3599   241767 21805191 |     5004     4970     81 |        0 |       226       280 |
|     11712 |    3599   241869 21808310 |     7554     3266     49 |        0 |       323       382 |
|     18221 |    3599   242612 21823273 |     8780     6001     52 |        0 |       555      1125 |
|     27912 |    3599   243654 21846510 |    11200     6312     37 |        0 |       822      2167 |
|     42975 |    3599   245743 21878555 |    13604     9579     54 |        0 |      1499      4256 |
|     64935 |    3599   248242 21925654 |    17212     9347     41 |        0 |      2082      6755 |
|     98833 |    3599   252948 22005166 |    20818    15651     56 |        0 |      3101     11461 |
|    147433 |    3599   257759 22102329 |    25612    19045     55 |        0 |      4610     16272 |
|    220644 |    3599   265286 22245334 |    31616    22260     48 |        0 |      6535     23799 |
|    326114 |    3599   272230 22359630 |    38828    23942     46 |        0 |      8063     30743 |
|    474730 |    3599   273057 22377046 |    47213    24143     38 |        0 |      8413     31570 |
|    759333 |    3599   335977 23389314 |    59223    45756     57 |        0 |     22940     94490 |
|   1186654 |    3599   430773 24938309 |    74819    41473     36 |        0 |     36142    189286 |
|   1855141 |    3599   600472 27447542 |    92822    85963     58 |        0 |     59418    358985 |
|   2622774 |    3592   293635 20998343 |   110805    94579     70 |        0 |     64920    378436 |
|   3770975 |    3592   319562 21450235 |   133613    87588     56 |        0 |     73514    404363 |
|   5486525 |    3579   288314 20782169 |   161215   114940     67 |        0 |     86847    436502 |
=====================================================================================================
Number of solutions   : 0
Canonical subgraphs   : 106818         (64 /sec)
          order  3    : 1              (inf /sec)
          order  4    : 1              (inf /sec)
          order  5    : 1              (inf /sec)
          order  6    : 1              (inf /sec)
          order  7    : 2              (10204 /sec)
          order  8    : 7              (2906 /sec)
          order  9    : 26             (870 /sec)
          order 10    : 112            (298 /sec)
          order 11    : 569            (100 /sec)
          order 12    : 4632           (89 /sec)
          order 13    : 21330          (70 /sec)
          order 14    : 53755          (65 /sec)
          order 15    : 20632          (57 /sec)
          order 16    : 4519           (47 /sec)
          order 17    : 718            (47 /sec)
          order 18    : 171            (54 /sec)
          order 19    : 166            (55 /sec)
          order 20    : 175            (52 /sec)
          order 21    : 0              (-nan /sec)
Noncanonical subgraphs: 490922         (671 /sec)
          order  3    : 0              (-nan /sec)
          order  4    : 0              (-nan /sec)
          order  5    : 0              (-nan /sec)
          order  6    : 0              (-nan /sec)
          order  7    : 0              (-nan /sec)
          order  8    : 0              (-nan /sec)
          order  9    : 0              (-nan /sec)
          order 10    : 0              (-nan /sec)
          order 11    : 0              (-nan /sec)
          order 12    : 0              (-nan /sec)
          order 13    : 93537          (1762 /sec)
          order 14    : 313230         (694 /sec)
          order 15    : 81853          (382 /sec)
          order 16    : 2087           (245 /sec)
          order 17    : 4              (112 /sec)
          order 18    : 0              (-nan /sec)
          order 19    : 2              (312 /sec)
          order 20    : 2              (2639 /sec)
Canonicity checking   : 1680.86 s
Noncanonicity checking: 731.516 s
Total canonicity time : 2412.37 s
database reductions   : 159
restarts              : 12634
conflicts             : 7922247        (1073 /sec)
decisions             : 9944063        (0.00 % random) (1347 /sec)
propagations          : 468017818      (63396 /sec)
conflict literals     : 812645531      (57.28 % deleted)
actual reward         : 0.205298
Memory used           : 408.00 MB
CPU time              : 7382.48 s

UNSATISFIABLE
